NAME : X-n327-k20
COMMENT : "Generated by Uchoa, Pecin, Pessoa, Poggi, Subramanian, and Vidal (2013)"
TYPE : CVRP
DIMENSION : 327
EDGE_WEIGHT_TYPE : EUC_2D
EDGE_WEIGHT_FORMAT : 
CAPACITY : 128
DISTANCE : 1.79769e+308
SERVICE_TIME : 0
NODE_COORD_SECTION
1 236 951
2 735 289
3 841 735
4 846 821
5 907 810
6 55 136
7 372 422
8 437 584
9 509 822
10 57 519
11 563 333
12 750 8
13 644 692
14 123 787
15 865 618
16 833 453
17 736 643
18 90 930
19 804 192
20 435 164
21 540 911
22 747 80
23 486 239
24 511 784
25 639 247
26 337 11
27 95 706
28 719 839
29 943 421
30 55 633
31 396 807
32 916 252
33 191 716
34 552 500
35 226 520
36 666 833
37 450 431
38 427 307
39 4 89
40 736 784
41 615 382
42 739 386
43 229 527
44 594 197
45 910 398
46 492 214
47 974 107
48 914 556
49 384 827
50 151 908
51 390 873
52 70 232
53 418 29
54 128 721
55 211 129
56 641 993
57 220 883
58 293 551
59 244 952
60 910 489
61 324 280
62 466 437
63 879 676
64 359 770
65 95 631
66 920 56
67 577 407
68 178 769
69 225 359
70 882 228
71 385 516
72 759 814
73 234 405
74 33 412
75 423 135
76 194 121
77 970 723
78 6 206
79 392 669
80 782 300
81 107 786
82 889 855
83 68 280
84 522 848
85 653 78
86 719 736
87 809 404
88 620 655
89 439 605
90 990 874
91 46 236
92 980 500
93 625 383
94 146 430
95 795 241
96 714 554
97 200 946
98 89 207
99 144 648
100 633 877
101 482 843
102 670 150
103 763 951
104 755 922
105 615 139
106 192 844
107 396 409
108 799 30
109 72 916
110 917 12
111 370 551
112 686 937
113 156 769
114 553 21
115 86 666
116 42 261
117 494 309
118 767 378
119 528 311
120 697 21
121 545 665
122 675 228
123 752 812
124 180 120
125 94 979
126 348 861
127 397 753
128 229 855
129 756 910
130 311 203
131 177 491
132 280 408
133 470 132
134 40 324
135 386 644
136 975 360
137 9 836
138 466 934
139 397 598
140 658 175
141 470 227
142 472 882
143 157 4
144 876 714
145 780 25
146 394 658
147 697 278
148 879 723
149 192 970
150 522 896
151 620 103
152 122 342
153 790 311
154 599 866
155 611 927
156 761 602
157 983 317
158 320 981
159 933 461
160 156 922
161 10 773
162 834 293
163 926 186
164 370 613
165 440 477
166 243 999
167 508 847
168 669 376
169 666 745
170 103 931
171 676 953
172 54 978
173 687 958
174 490 478
175 739 920
176 753 305
177 109 937
178 15 915
179 404 490
180 602 738
181 724 965
182 348 565
183 688 798
184 632 674
185 40 982
186 223 946
187 464 945
188 408 367
189 530 770
190 924 692
191 428 765
192 358 485
193 565 728
194 443 295
195 66 938
196 222 992
197 716 347
198 495 763
199 683 452
200 36 884
201 74 958
202 719 301
203 698 823
204 816 412
205 292 364
206 565 958
207 626 779
208 429 532
209 79 947
210 628 779
211 609 887
212 664 939
213 17 996
214 328 988
215 680 383
216 742 358
217 659 374
218 622 546
219 850 978
220 230 964
221 663 425
222 622 900
223 195 917
224 559 938
225 496 961
226 469 485
227 688 780
228 135 944
229 338 907
230 700 752
231 176 858
232 457 356
233 133 940
234 531 327
235 656 685
236 215 828
237 257 995
238 224 999
239 308 625
240 552 995
241 689 723
242 244 517
243 615 185
244 174 911
245 645 998
246 668 409
247 461 850
248 605 496
249 447 815
250 643 652
251 281 970
252 544 649
253 681 805
254 237 976
255 592 381
256 239 911
257 577 793
258 749 816
259 446 458
260 49 965
261 705 802
262 644 796
263 461 958
264 249 978
265 858 374
266 681 387
267 676 925
268 107 882
269 221 974
270 44 884
271 341 985
272 587 702
273 408 941
274 689 379
275 520 846
276 367 393
277 457 261
278 613 339
279 299 819
280 680 431
281 670 272
282 584 832
283 205 968
284 720 840
285 81 862
286 437 430
287 443 557
288 228 890
289 707 458
290 365 855
291 677 345
292 527 416
293 224 929
294 673 774
295 298 869
296 524 758
297 624 918
298 115 966
299 235 882
300 391 446
301 554 866
302 756 921
303 464 857
304 547 966
305 464 969
306 721 823
307 415 525
308 632 720
309 481 524
310 603 286
311 774 753
312 527 935
313 726 979
314 584 437
315 846 221
316 683 751
317 732 271
318 753 935
319 76 975
320 564 787
321 310 420
322 615 788
323 406 463
324 880 364
325 559 849
326 706 472
327 397 449
PICKUP_AND_DELIVERY_SECTION
1 0 0 0 0 0 0
2 0 0 0 0 0 6
3 0 0 0 0 10 0
4 0 0 0 0 0 8
5 0 0 0 0 5 0
6 0 0 0 0 0 6
7 0 0 0 0 9 0
8 0 0 0 0 0 8
9 0 0 0 0 6 0
10 0 0 0 0 0 7
11 0 0 0 0 10 0
12 0 0 0 0 0 8
13 0 0 0 0 6 0
14 0 0 0 0 0 10
15 0 0 0 0 6 0
16 0 0 0 0 0 7
17 0 0 0 0 6 0
18 0 0 0 0 0 9
19 0 0 0 0 8 0
20 0 0 0 0 0 10
21 0 0 0 0 10 0
22 0 0 0 0 0 9
23 0 0 0 0 9 0
24 0 0 0 0 0 9
25 0 0 0 0 7 0
26 0 0 0 0 0 7
27 0 0 0 0 8 0
28 0 0 0 0 0 7
29 0 0 0 0 5 0
30 0 0 0 0 0 5
31 0 0 0 0 7 0
32 0 0 0 0 0 9
33 0 0 0 0 6 0
34 0 0 0 0 0 9
35 0 0 0 0 10 0
36 0 0 0 0 0 9
37 0 0 0 0 8 0
38 0 0 0 0 0 8
39 0 0 0 0 5 0
40 0 0 0 0 0 5
41 0 0 0 0 8 0
42 0 0 0 0 0 5
43 0 0 0 0 10 0
44 0 0 0 0 0 7
45 0 0 0 0 8 0
46 0 0 0 0 0 7
47 0 0 0 0 6 0
48 0 0 0 0 0 5
49 0 0 0 0 9 0
50 0 0 0 0 0 8
51 0 0 0 0 10 0
52 0 0 0 0 0 5
53 0 0 0 0 5 0
54 0 0 0 0 0 7
55 0 0 0 0 5 0
56 0 0 0 0 0 8
57 0 0 0 0 10 0
58 0 0 0 0 0 8
59 0 0 0 0 9 0
60 0 0 0 0 0 9
61 0 0 0 0 5 0
62 0 0 0 0 0 6
63 0 0 0 0 6 0
64 0 0 0 0 0 5
65 0 0 0 0 9 0
66 0 0 0 0 0 9
67 0 0 0 0 6 0
68 0 0 0 0 0 8
69 0 0 0 0 9 0
70 0 0 0 0 0 10
71 0 0 0 0 5 0
72 0 0 0 0 0 9
73 0 0 0 0 5 0
74 0 0 0 0 0 10
75 0 0 0 0 7 0
76 0 0 0 0 0 7
77 0 0 0 0 6 0
78 0 0 0 0 0 10
79 0 0 0 0 10 0
80 0 0 0 0 0 5
81 0 0 0 0 6 0
82 0 0 0 0 0 10
83 0 0 0 0 8 0
84 0 0 0 0 0 5
85 0 0 0 0 7 0
86 0 0 0 0 0 5
87 0 0 0 0 5 0
88 0 0 0 0 0 5
89 0 0 0 0 7 0
90 0 0 0 0 0 7
91 0 0 0 0 9 0
92 0 0 0 0 0 10
93 0 0 0 0 9 0
94 0 0 0 0 0 6
95 0 0 0 0 6 0
96 0 0 0 0 0 10
97 0 0 0 0 7 0
98 0 0 0 0 0 6
99 0 0 0 0 10 0
100 0 0 0 0 0 8
101 0 0 0 0 5 0
102 0 0 0 0 0 8
103 0 0 0 0 6 0
104 0 0 0 0 0 8
105 0 0 0 0 6 0
106 0 0 0 0 0 9
107 0 0 0 0 10 0
108 0 0 0 0 0 10
109 0 0 0 0 8 0
110 0 0 0 0 0 10
111 0 0 0 0 7 0
112 0 0 0 0 0 6
113 0 0 0 0 6 0
114 0 0 0 0 0 5
115 0 0 0 0 8 0
116 0 0 0 0 0 7
117 0 0 0 0 8 0
118 0 0 0 0 0 8
119 0 0 0 0 7 0
120 0 0 0 0 0 6
121 0 0 0 0 7 0
122 0 0 0 0 0 9
123 0 0 0 0 7 0
124 0 0 0 0 0 7
125 0 0 0 0 5 0
126 0 0 0 0 0 6
127 0 0 0 0 5 0
128 0 0 0 0 0 9
129 0 0 0 0 5 0
130 0 0 0 0 0 8
131 0 0 0 0 5 0
132 0 0 0 0 0 10
133 0 0 0 0 7 0
134 0 0 0 0 0 5
135 0 0 0 0 8 0
136 0 0 0 0 0 7
137 0 0 0 0 10 0
138 0 0 0 0 0 7
139 0 0 0 0 8 0
140 0 0 0 0 0 7
141 0 0 0 0 9 0
142 0 0 0 0 0 9
143 0 0 0 0 8 0
144 0 0 0 0 0 8
145 0 0 0 0 6 0
146 0 0 0 0 0 9
147 0 0 0 0 10 0
148 0 0 0 0 0 5
149 0 0 0 0 6 0
150 0 0 0 0 0 6
151 0 0 0 0 7 0
152 0 0 0 0 0 9
153 0 0 0 0 9 0
154 0 0 0 0 0 8
155 0 0 0 0 8 0
156 0 0 0 0 0 6
157 0 0 0 0 6 0
158 0 0 0 0 0 10
159 0 0 0 0 10 0
160 0 0 0 0 0 8
161 0 0 0 0 6 0
162 0 0 0 0 0 8
163 0 0 0 0 6 0
164 0 0 0 0 0 10
165 0 0 0 0 10 0
166 0 0 0 0 0 5
167 0 0 0 0 10 0
168 0 0 0 0 0 5
169 0 0 0 0 8 0
170 0 0 0 0 0 7
171 0 0 0 0 7 0
172 0 0 0 0 0 10
173 0 0 0 0 9 0
174 0 0 0 0 0 5
175 0 0 0 0 7 0
176 0 0 0 0 0 8
177 0 0 0 0 6 0
178 0 0 0 0 0 5
179 0 0 0 0 7 0
180 0 0 0 0 0 9
181 0 0 0 0 9 0
182 0 0 0 0 0 8
183 0 0 0 0 7 0
184 0 0 0 0 0 7
185 0 0 0 0 10 0
186 0 0 0 0 0 10
187 0 0 0 0 7 0
188 0 0 0 0 0 10
189 0 0 0 0 7 0
190 0 0 0 0 0 10
191 0 0 0 0 6 0
192 0 0 0 0 0 5
193 0 0 0 0 8 0
194 0 0 0 0 0 6
195 0 0 0 0 8 0
196 0 0 0 0 0 10
197 0 0 0 0 10 0
198 0 0 0 0 0 6
199 0 0 0 0 8 0
200 0 0 0 0 0 5
201 0 0 0 0 10 0
202 0 0 0 0 0 6
203 0 0 0 0 5 0
204 0 0 0 0 0 9
205 0 0 0 0 9 0
206 0 0 0 0 0 7
207 0 0 0 0 7 0
208 0 0 0 0 0 6
209 0 0 0 0 10 0
210 0 0 0 0 0 6
211 0 0 0 0 9 0
212 0 0 0 0 0 7
213 0 0 0 0 6 0
214 0 0 0 0 0 6
215 0 0 0 0 10 0
216 0 0 0 0 0 10
217 0 0 0 0 9 0
218 0 0 0 0 0 10
219 0 0 0 0 8 0
220 0 0 0 0 0 9
221 0 0 0 0 9 0
222 0 0 0 0 0 9
223 0 0 0 0 8 0
224 0 0 0 0 0 5
225 0 0 0 0 8 0
226 0 0 0 0 0 8
227 0 0 0 0 10 0
228 0 0 0 0 0 6
229 0 0 0 0 8 0
230 0 0 0 0 0 9
231 0 0 0 0 9 0
232 0 0 0 0 0 7
233 0 0 0 0 9 0
234 0 0 0 0 0 7
235 0 0 0 0 9 0
236 0 0 0 0 0 7
237 0 0 0 0 6 0
238 0 0 0 0 0 6
239 0 0 0 0 5 0
240 0 0 0 0 0 6
241 0 0 0 0 8 0
242 0 0 0 0 0 6
243 0 0 0 0 6 0
244 0 0 0 0 0 8
245 0 0 0 0 10 0
246 0 0 0 0 0 8
247 0 0 0 0 6 0
248 0 0 0 0 0 5
249 0 0 0 0 8 0
250 0 0 0 0 0 8
251 0 0 0 0 5 0
252 0 0 0 0 0 9
253 0 0 0 0 7 0
254 0 0 0 0 0 10
255 0 0 0 0 6 0
256 0 0 0 0 0 7
257 0 0 0 0 6 0
258 0 0 0 0 0 9
259 0 0 0 0 6 0
260 0 0 0 0 0 10
261 0 0 0 0 10 0
262 0 0 0 0 0 7
263 0 0 0 0 5 0
264 0 0 0 0 0 10
265 0 0 0 0 7 0
266 0 0 0 0 0 9
267 0 0 0 0 5 0
268 0 0 0 0 0 10
269 0 0 0 0 10 0
270 0 0 0 0 0 5
271 0 0 0 0 10 0
272 0 0 0 0 0 7
273 0 0 0 0 10 0
274 0 0 0 0 0 10
275 0 0 0 0 8 0
276 0 0 0 0 0 6
277 0 0 0 0 10 0
278 0 0 0 0 0 7
279 0 0 0 0 10 0
280 0 0 0 0 0 9
281 0 0 0 0 7 0
282 0 0 0 0 0 10
283 0 0 0 0 9 0
284 0 0 0 0 0 6
285 0 0 0 0 8 0
286 0 0 0 0 0 9
287 0 0 0 0 9 0
288 0 0 0 0 0 8
289 0 0 0 0 5 0
290 0 0 0 0 0 9
291 0 0 0 0 6 0
292 0 0 0 0 0 7
293 0 0 0 0 5 0
294 0 0 0 0 0 9
295 0 0 0 0 9 0
296 0 0 0 0 0 6
297 0 0 0 0 10 0
298 0 0 0 0 0 5
299 0 0 0 0 5 0
300 0 0 0 0 0 8
301 0 0 0 0 6 0
302 0 0 0 0 0 9
303 0 0 0 0 5 0
304 0 0 0 0 0 7
305 0 0 0 0 10 0
306 0 0 0 0 0 7
307 0 0 0 0 8 0
308 0 0 0 0 0 10
309 0 0 0 0 7 0
310 0 0 0 0 0 5
311 0 0 0 0 5 0
312 0 0 0 0 0 8
313 0 0 0 0 9 0
314 0 0 0 0 0 5
315 0 0 0 0 8 0
316 0 0 0 0 0 9
317 0 0 0 0 6 0
318 0 0 0 0 0 5
319 0 0 0 0 6 0
320 0 0 0 0 0 9
321 0 0 0 0 8 0
322 0 0 0 0 0 8
323 0 0 0 0 5 0
324 0 0 0 0 0 5
325 0 0 0 0 6 0
326 0 0 0 0 0 5
327 0 0 0 0 7 0
